c
c This file was generated by -=randSat=- cnf formula generator 
c 
p cnf 10 100
10 6 8 0
7 7 7 0
-7 -7 -7 0
2 8 5 0
9 2 -6 0
1 -9 10 0
-5 2 8 0
3 2 1 0
3 -2 -10 0
-7 5 1 0
-10 -9 -7 0
6 -9 4 0
3 -2 -9 0
9 3 -8 0
8 -1 2 0
7 -4 6 0
6 9 4 0
-6 10 -9 0
10 -2 1 0
5 2 10 0
-2 5 9 0
5 2 10 0
-1 4 -3 0
1 6 3 0
-1 7 2 0
-3 -4 1 0
-10 -5 3 0
-1 2 -3 0
-2 6 7 0
7 10 4 0
1 -10 4 0
10 6 8 0
5 -4 7 0
1 -7 -8 0
-2 -8 1 0
1 7 5 0
4 2 8 0
8 -4 9 0
7 2 8 0
-9 10 -1 0
-10 3 -6 0
2 -7 -4 0
-2 7 9 0
10 2 -8 0
-10 1 -9 0
4 2 9 0
-5 4 1 0
-6 2 10 0
-1 10 -4 0
3 -2 5 0
-10 2 4 0
-8 3 6 0
7 -10 6 0
10 9 7 0
5 -7 -9 0
4 -2 3 0
6 -7 5 0
-2 8 -4 0
-2 -6 4 0
-6 8 9 0
-8 -6 7 0
6 1 5 0
9 8 5 0
5 3 -6 0
-1 -7 -5 0
-5 4 10 0
7 9 8 0
4 5 -10 0
1 -7 8 0
2 3 -4 0
3 -4 6 0
7 9 5 0
5 3 2 0
4 2 -8 0
-1 -2 -9 0
-3 10 4 0
-10 -7 8 0
2 4 -10 0
-9 -8 2 0
8 4 3 0
4 7 9 0
1 6 10 0
4 1 10 0
10 2 -8 0
7 8 10 0
2 -4 -9 0
-10 4 9 0
6 9 10 0
10 -3 -6 0
-10 3 8 0
2 10 -8 0
2 5 6 0
-10 -6 7 0
-9 -10 -8 0
-5 6 3 0
8 4 -9 0
8 1 9 0
-6 9 10 0
6 1 4 0
8 -4 6 0
